-99 -99 -99 -99 -99 -99 -99 000 -99 -99 -99 -99 -99 000 000 -99 -99 -99 -99 -99 -99 -99 -99 -99 000 000 000 000 000 000 000
000 -99 000 -99 -99 -99 000 000 -99 -99 -99 -99 -99 000 000 -99 -99 -99 -99 -99 -99 -99 -99 -99 -99 000 000 000 000 000 -99
000 000 000 000 000 000 000 000 000 -99 -99 -99 -99 -99 -99 -99 -99 -99 -99 -99 -99 -99 000 000 -99 000 000 000 000 000 -99
000 000 000 000 000 000 000 000 000 -99 -99 -99 000 -99 -99 -99 -99 -99 -99 -99 -99 -99 000 000 -99 000 000 000 000 000 -99
000 000 000 000 000 000 000 000 000 000 -99 -99 000 -99 -99 000 000 -99 -99 -99 -99 000 000 000 000 000 000 000 000 -99 -99
000 000 000 000 000 000 000 000 000 000 -99 -99 000 000 -99 000 000 000 -99 -99 000 000 000 000 000 000 000 -99 -99 -99 -99
000 000 000 000 000 000 000 000 000 -99 -99 -99 000 000 -99 000 000 000 000 000 000 000 000 000 000 000 000 -99 -99 -99 -99
000 000 000 000 000 000 000 000 000 -99 -99 -99 000 000 000 000 000 001 002 000 000 000 000 000 000 000 -99 -99 -99 000 000
000 000 000 000 000 000 000 000 000 000 -99 000 000 000 000 001 001 004 003 001 000 000 000 000 000 000 000 000 000 000 000
000 000 000 000 000 000 000 000 000 000 000 000 000 001 002 006 005 008 006 001 000 000 000 000 000 000 000 000 000 000 -99
000 000 000 000 000 000 000 000 000 000 000 000 000 000 003 007 007 008 005 001 000 000 000 000 000 000 000 000 000 000 -99
000 000 000 000 000 000 000 000 000 000 000 001 000 000 001 004 004 006 003 000 000 -99 -99 000 000 000 000 000 000 000 -99
000 000 000 000 000 000 000 000 000 000 000 000 000 000 000 001 002 003 003 000 000 -99 -99 -99 -99 000 000 000 000 000 -99
000 000 -99 000 000 000 000 000 -99 000 000 000 000 000 000 000 000 001 001 000 -99 -99 -99 -99 -99 000 000 000 000 000 -99
000 000 000 000 000 000 000 -99 -99 -99 000 000 000 000 000 000 000 000 000 000 -99 -99 -99 000 -99 000 000 000 000 000 000
000 000 000 000 000 000 000 -99 -99 -99 -99 -99 -99 000 000 000 000 000 000 -99 -99 -99 000 000 -99 000 000 -99 000 000 000
000 000 000 000 000 000 000 -99 000 -99 -99 -99 000 000 000 000 000 000 -99 -99 -99 -99 000 000 000 000 000 -99 000 000 000
000 000 000 000 000 -99 000 -99 000 -99 -99 -99 -99 000 000 000 000 000 -99 -99 -99 -99 000 000 -99 -99 000 -99 000 000 000
000 000 000 000 -99 -99 000 000 000 000 -99 -99 -99 -99 000 -99 000 000 -99 -99 -99 -99 -99 -99 -99 -99 000 000 000 000 000
000 000 000 000 000 000 000 000 000 000 -99 -99 -99 -99 -99 000 000 000 -99 -99 -99 -99 -99 -99 -99 -99 000 -99 000 000 -99
000 000 000 000 000 000 -99 000 000 -99 -99 -99 -99 -99 -99 000 000 000 -99 -99 -99 -99 -99 -99 -99 -99 000 -99 000 000 -99
000 000 000 000 000 000 000 000 000 -99 -99 -99 -99 -99 -99 000 000 000 -99 -99 -99 -99 000 -99 -99 -99 000 -99 -99 000 -99
000 000 000 000 000 000 000 000 000 -99 -99 -99 -99 -99 -99 000 000 -99 -99 -99 -99 -99 000 -99 000 -99 -99 -99 -99 -99 -99
000 000 000 000 000 000 000 000 000 -99 -99 -99 -99 000 000 000 000 -99 -99 -99 -99 -99 000 -99 000 -99 -99 -99 -99 -99 000
-99 -99 000 000 000 000 000 000 000 -99 -99 -99 -99 -99 000 000 000 000 000 -99 -99 -99 000 -99 -99 -99 -99 -99 -99 -99 000
-99 -99 000 000 000 000 000 000 -99 000 000 -99 -99 -99 000 000 000 000 000 -99 -99 -99 -99 -99 -99 -99 -99 -99 -99 000 000
-99 -99 000 000 000 000 000 -99 -99 000 -99 -99 -99 -99 -99 000 000 000 000 -99 -99 -99 -99 -99 -99 -99 -99 -99 -99 000 000
-99 -99 000 000 000 000 000 000 -99 -99 -99 -99 -99 -99 000 000 000 000 -99 -99 -99 000 -99 -99 -99 -99 -99 -99 -99 000 000
000 000 000 000 000 000 000 000 -99 -99 -99 -99 -99 -99 000 000 000 000 -99 -99 -99 000 -99 -99 -99 -99 -99 -99 -99 -99 -99
000 000 000 -99 000 000 000 000 000 -99 -99 -99 -99 000 000 000 000 000 000 -99 -99 000 -99 -99 -99 000 000 -99 -99 -99 -99
-99 000 000 -99 000 000 000 000 000 -99 -99 -99 -99 -99 000 000 000 000 000 -99 -99 000 -99 -99 -99 000 000 -99 -99 -99 -99
000 000 000 000 000 000 000 000 000 -99 -99 -99 -99 000 000 000 000 000 -99 000 000 000 000 000 000 000 000 -99 -99 -99 -99
-99 000 000 000 000 000 000 000 000 -99 -99 -99 -99 000 000 -99 000 000 000 -99 000 000 000 000 000 000 000 -99 -99 -99 000
-99 -99 000 000 000 000 000 000 000 -99 -99 -99 000 000 000 -99 000 000 000 -99 000 000 000 000 000 000 000 -99 -99 -99 000
-99 000 -99 000 000 000 000 000 -99 -99 -99 -99 000 000 000 000 000 000 -99 -99 000 000 000 000 000 000 000 -99 -99 -99 000
000 000 -99 -99 -99 -99 -99 -99 -99 -99 -99 -99 000 000 000 000 000 000 000 000 000 -99 -99 -99 000 000 000 000 -99 -99 -99
000 000 -99 000 000 -99 -99 -99 -99 -99 -99 -99 000 -99 000 000 000 000 000 000 000 -99 -99 -99 000 000 000 000 -99 -99 -99
000 000 -99 000 000 -99 -99 000 -99 -99 -99 -99 000 000 -99 000 000 000 000 -99 000 000 -99 000 000 000 000 -99 -99 -99 -99
000 000 -99 000 -99 -99 000 000 -99 -99 -99 -99 -99 000 000 -99 000 000 -99 -99 -99 000 000 000 000 000 000 -99 -99 -99 -99
000 -99 -99 000 -99 -99 -99 000 -99 -99 -99 000 000 000 -99 -99 000 -99 -99 -99 -99 -99 -99 -99 -99 -99 -99 -99 -99 -99 -99
-99 -99 -99 -99 -99 -99 -99 -99 -99 -99 000 000 000 000 -99 -99 -99 -99 -99 -99 -99 -99 -99 -99 -99 -99 -99 -99 -99 -99 -99
-99 -99 -99 -99 -99 -99 -99 -99 -99 -99 000 000 000 000 -99 -99 -99 -99 -99 -99 -99 -99 -99 -99 -99 -99 -99 -99 -99 -99 -99
-99 -99 -99 -99 -99 -99 -99 -99 000 000 000 000 000 -99 -99 -99 -99 -99 -99 000 -99 -99 -99 -99 -99 -99 -99 -99 -99 -99 -99
-99 -99 -99 -99 -99 -99 000 000 000 000 000 000 000 -99 -99 -99 -99 -99 000 000 000 -99 -99 -99 -99 -99 -99 -99 -99 -99 -99
-99 000 000 000 -99 000 000 001 001 003 001 000 000 -99 -99 -99 -99 -99 000 000 -99 -99 -99 -99 000 -99 -99 000 -99 -99 -99
000 000 000 000 000 000 001 003 017 010 001 001 000 -99 -99 -99 -99 -99 000 000 -99 -99 -99 -99 000 -99 -99 000 -99 -99 -99
000 001 000 000 001 002 013 012 025 012 008 003 000 -99 -99 -99 -99 -99 000 -99 -99 -99 -99 -99 -99 -99 000 -99 -99 -99 -99
000 000 001 001 002 007 018 027 014 008 020 003 000 -99 -99 -99 -99 -99 -99 -99 -99 -99 -99 -99 -99 -99 000 000 -99 -99 -99
000 000 000 000 002 006 009 010 010 013 012 000 000 000 -99 -99 -99 000 -99 -99 -99 -99 -99 -99 -99 -99 000 000 -99 -99 -99
-99 000 000 000 002 006 002 004 009 007 003 000 000 000 -99 -99 -99 000 -99 -99 -99 -99 -99 -99 -99 -99 -99 -99 -99 -99 -99
-99 000 000 000 002 002 001 002 003 003 001 000 000 000 -99 -99 -99 -99 -99 -99 -99 -99 -99 -99 -99 -99 -99 -99 -99 -99 -99
-99 -99 -99 000 000 000 000 001 002 001 000 001 004 000 000 -99 -99 -99 -99 -99 -99 -99 -99 -99 -99 -99 -99 -99 -99 -99 -99
-99 -99 -99 000 000 000 000 000 000 000 000 010 011 001 000 -99 -99 -99 -99 -99 -99 -99 -99 -99 -99 -99 -99 -99 -99 -99 -99
-99 -99 -99 -99 000 000 000 000 000 000 002 013 006 001 000 000 -99 -99 -99 -99 -99 -99 -99 -99 -99 -99 -99 -99 -99 -99 -99
-99 -99 -99 -99 -99 000 000 000 000 001 002 006 007 002 000 000 -99 -99 -99 -99 -99 -99 -99 -99 -99 -99 -99 -99 -99 -99 -99
